Mack/Bortfeldt(2008)
Bin-Packing-Problem
BP-RG/SBSBPP/SSSCSP
Testcase-ID	5
Problem-ID	45
no_item_types	12
no_items	2064
CONTAINER_DATA (l,w,h)	459	105	93
ITEMS_DATA:
Type	x	y	z	no_items
1	100	80	72	194
2	83	80	57	141
3	109	58	54	170
4	87	77	43	174
5	88	54	39	183
6	94	54	36	192
7	94	55	30	172
8	83	40	36	168
9	108	40	26	191
10	91	54	22	166
11	72	37	32	161
12	34	32	31	152
